p edge 20 37
v 1 1
v 2 8
v 3 4
v 4 3
v 5 9
v 6 6
v 7 7
v 8 10
v 9 9
v 10 7
v 11 1
v 12 1
v 13 1
v 14 5
v 15 7
v 16 3
v 17 4
v 18 6
v 19 4
v 20 4
e 1 6
e 1 16
e 1 18
e 1 19
e 2 5
e 3 4
e 3 7
e 3 9
e 3 15
e 3 20
e 4 7
e 4 8
e 4 9
e 4 15
e 4 20
e 5 10
e 5 14
e 6 16
e 6 18
e 6 19
e 7 8
e 7 9
e 7 11
e 7 15
e 8 9
e 8 11
e 8 12
e 8 20
e 9 11
e 9 15
e 9 20
e 10 14
e 11 12
e 11 20
e 16 17
e 16 18
e 18 19
